CPLEX 12.7.1.0: CPXPARAM_Simplex_Display                         0
CPXPARAM_MIP_Display                             0
CPXPARAM_Barrier_Display                         0
CPLEX 12.7.1.0: CPXPARAM_Simplex_Display                         0
CPXPARAM_MIP_Display                             0
CPXPARAM_MIP_Pool_Capacity                       0
CPXPARAM_Barrier_Display                         0
CPLEX 12.7.1.0: CPXPARAM_Simplex_Display                         0
CPXPARAM_MIP_Display                             0
CPXPARAM_MIP_Pool_Capacity                       0
CPXPARAM_Barrier_Display                         0
CPLEX 12.7.1.0: CPXPARAM_Simplex_Display                         0
CPXPARAM_MIP_Display                             0
CPXPARAM_MIP_Pool_Capacity                       0
CPXPARAM_Barrier_Display                         0
CPLEX 12.7.1.0: CPXPARAM_Simplex_Display                         0
CPXPARAM_MIP_Display                             0
CPXPARAM_MIP_Pool_Capacity                       0
CPXPARAM_Barrier_Display                         0
CPLEX 12.7.1.0: CPXPARAM_Simplex_Display                         0
CPXPARAM_MIP_Display                             0
CPXPARAM_MIP_Pool_Capacity                       0
CPXPARAM_Barrier_Display                         0

<BREAK> (cplex)
CPLEX 12.7.1.0: CPXPARAM_Simplex_Display                         0
CPXPARAM_MIP_Display                             0
CPXPARAM_MIP_Pool_Capacity                       0
CPXPARAM_Barrier_Display                         0

<BREAK> (cplex)
CPLEX 12.7.1.0: CPXPARAM_Simplex_Display                         0
CPXPARAM_MIP_Display                             0
CPXPARAM_MIP_Pool_Capacity                       0
CPXPARAM_Barrier_Display                         0

<BREAK> (cplex)

<BREAK> (cplex)

<BREAK> (cplex)
